min: c;

c = 3.04259384326658 * u5_t4_h2 + 3.04259384326658 * u5_t7_h2 + 3.17982511619084 * u5_t4_h3 + 3.17982511619084 * u5_t7_h3 + 3.46885280267708 * u5_t1_h4 + 3.46885280267708 * u5_t3_h4 + 3.46885280267708 * u5_t4_h4 + 3.46885280267708 * u5_t7_h4 + 3.25331514646487 * u5_t1_h5 + 3.25331514646487 * u5_t3_h5 + 3.25331514646487 * u5_t4_h5 + 3.25331514646487 * u5_t7_h5 + 4.38247645886552 * u5_t1_h6 + 4.38247645886552 * u5_t3_h6 + 4.38247645886552 * u5_t4_h6 + 4.38247645886552 * u5_t6_h6 + 4.38247645886552 * u5_t7_h6 + 4.01283875311857 * u5_t1_h7 + 4.01283875311857 * u5_t3_h7 + 4.01283875311857 * u5_t4_h7 + 4.01283875311857 * u5_t6_h7 + 5.72858630267492 * u5_t1_h8 + 5.72858630267492 * u5_t3_h8 + 5.72858630267492 * u5_t4_h8 + 5.72858630267492 * u5_t6_h8 + 4.76077867036614 * u5_t1_h9 + 4.76077867036614 * u5_t3_h9 + 4.76077867036614 * u5_t4_h9 + 4.76077867036614 * u5_t6_h9 + 5.87747414643875 * u5_t1_h10 + 5.87747414643875 * u5_t3_h10 + 5.87747414643875 * u5_t4_h10 + 5.87747414643875 * u5_t6_h10 + 3.6240017754808 * u5_t1_h11 + 3.6240017754808 * u5_t3_h11 + 3.6240017754808 * u5_t4_h11 + 3.6240017754808 * u5_t6_h11 + 5.77368517918127 * u5_t1_h12 + 5.77368517918127 * u5_t3_h12 + 5.77368517918127 * u5_t4_h12 + 5.77368517918127 * u5_t6_h12 + 4.30932124023077 * u5_t1_h13 + 4.30932124023077 * u5_t3_h13 + 4.30932124023077 * u5_t4_h13 + 4.30932124023077 * u5_t6_h13 + 4.30932124023077 * u5_t8_h13 + 5.83966899737267 * u5_t1_h14 + 5.83966899737267 * u5_t3_h14 + 5.83966899737267 * u5_t4_h14 + 5.83966899737267 * u5_t6_h14 + 5.83966899737267 * u5_t8_h14 + 6.26169140036197 * u5_t1_h15 + 6.26169140036197 * u5_t3_h15 + 6.26169140036197 * u5_t4_h15 + 6.26169140036197 * u5_t6_h15 + 6.26169140036197 * u5_t8_h15 + 6.26169140036197 * u5_t9_h15 + 6.15252586879726 * u5_t1_h16 + 6.15252586879726 * u5_t3_h16 + 6.15252586879726 * u5_t4_h16 + 6.15252586879726 * u5_t5_h16 + 6.15252586879726 * u5_t6_h16 + 6.15252586879726 * u5_t8_h16 + 6.15252586879726 * u5_t9_h16 + 5.88566790240526 * u5_t1_h17 + 5.88566790240526 * u5_t5_h17 + 5.88566790240526 * u5_t6_h17 + 5.88566790240526 * u5_t8_h17 + 5.88566790240526 * u5_t9_h17 + 5.88566790240526 * u5_t10_h17 + 6.94232320601809 * u5_t1_h18 + 6.94232320601809 * u5_t2_h18 + 6.94232320601809 * u5_t5_h18 + 6.94232320601809 * u5_t6_h18 + 6.94232320601809 * u5_t9_h18 + 6.94232320601809 * u5_t10_h18 + 5.36123945149729 * u5_t1_h19 + 5.36123945149729 * u5_t2_h19 + 5.36123945149729 * u5_t5_h19 + 5.36123945149729 * u5_t9_h19 + 5.36123945149729 * u5_t10_h19 + 5.92950490199927 * u5_t1_h20 + 5.92950490199927 * u5_t2_h20 + 5.92950490199927 * u5_t5_h20 + 5.92950490199927 * u5_t9_h20 + 5.92950490199927 * u5_t10_h20 + 5.51699425461313 * u5_t2_h21 + 5.51699425461313 * u5_t5_h21 + 5.51699425461313 * u5_t9_h21 + 5.51699425461313 * u5_t10_h21 + 6.00294159370126 * u5_t2_h22 + 6.00294159370126 * u5_t5_h22 + 6.00294159370126 * u5_t9_h22 + 6.00294159370126 * u5_t10_h22 + 5.27332479129281 * u5_t5_h23 + 5.27332479129281 * u5_t9_h23 + 5.27332479129281 * u5_t10_h23;
0 <= u5_t1_h4 <= 1;
0 <= u5_t1_h5 <= 1;
0 <= u5_t1_h6 <= 1;
0 <= u5_t1_h7 <= 1;
0 <= u5_t1_h8 <= 1;
0 <= u5_t1_h9 <= 1;
0 <= u5_t1_h10 <= 1;
0 <= u5_t1_h11 <= 1;
0 <= u5_t1_h12 <= 1;
0 <= u5_t1_h13 <= 1;
0 <= u5_t1_h14 <= 1;
0 <= u5_t1_h15 <= 1;
0 <= u5_t1_h16 <= 1;
0 <= u5_t1_h17 <= 1;
0 <= u5_t1_h18 <= 1;
0 <= u5_t1_h19 <= 1;
0 <= u5_t1_h20 <= 1;
u5_t1_h4 + u5_t1_h5 + u5_t1_h6 + u5_t1_h7 + u5_t1_h8 + u5_t1_h9 + u5_t1_h10 + u5_t1_h11 + u5_t1_h12 + u5_t1_h13 + u5_t1_h14 + u5_t1_h15 + u5_t1_h16 + u5_t1_h17 + u5_t1_h18 + u5_t1_h19 + u5_t1_h20 = 1;
0 <= u5_t2_h18 <= 1;
0 <= u5_t2_h19 <= 1;
0 <= u5_t2_h20 <= 1;
0 <= u5_t2_h21 <= 1;
0 <= u5_t2_h22 <= 1;
u5_t2_h18 + u5_t2_h19 + u5_t2_h20 + u5_t2_h21 + u5_t2_h22 = 3;
0 <= u5_t3_h4 <= 1;
0 <= u5_t3_h5 <= 1;
0 <= u5_t3_h6 <= 1;
0 <= u5_t3_h7 <= 1;
0 <= u5_t3_h8 <= 1;
0 <= u5_t3_h9 <= 1;
0 <= u5_t3_h10 <= 1;
0 <= u5_t3_h11 <= 1;
0 <= u5_t3_h12 <= 1;
0 <= u5_t3_h13 <= 1;
0 <= u5_t3_h14 <= 1;
0 <= u5_t3_h15 <= 1;
0 <= u5_t3_h16 <= 1;
u5_t3_h4 + u5_t3_h5 + u5_t3_h6 + u5_t3_h7 + u5_t3_h8 + u5_t3_h9 + u5_t3_h10 + u5_t3_h11 + u5_t3_h12 + u5_t3_h13 + u5_t3_h14 + u5_t3_h15 + u5_t3_h16 = 1;
0 <= u5_t4_h2 <= 1;
0 <= u5_t4_h3 <= 1;
0 <= u5_t4_h4 <= 1;
0 <= u5_t4_h5 <= 1;
0 <= u5_t4_h6 <= 1;
0 <= u5_t4_h7 <= 1;
0 <= u5_t4_h8 <= 1;
0 <= u5_t4_h9 <= 1;
0 <= u5_t4_h10 <= 1;
0 <= u5_t4_h11 <= 1;
0 <= u5_t4_h12 <= 1;
0 <= u5_t4_h13 <= 1;
0 <= u5_t4_h14 <= 1;
0 <= u5_t4_h15 <= 1;
0 <= u5_t4_h16 <= 1;
u5_t4_h2 + u5_t4_h3 + u5_t4_h4 + u5_t4_h5 + u5_t4_h6 + u5_t4_h7 + u5_t4_h8 + u5_t4_h9 + u5_t4_h10 + u5_t4_h11 + u5_t4_h12 + u5_t4_h13 + u5_t4_h14 + u5_t4_h15 + u5_t4_h16 = 3;
0 <= u5_t5_h16 <= 1;
0 <= u5_t5_h17 <= 1;
0 <= u5_t5_h18 <= 1;
0 <= u5_t5_h19 <= 1;
0 <= u5_t5_h20 <= 1;
0 <= u5_t5_h21 <= 1;
0 <= u5_t5_h22 <= 1;
0 <= u5_t5_h23 <= 1;
u5_t5_h16 + u5_t5_h17 + u5_t5_h18 + u5_t5_h19 + u5_t5_h20 + u5_t5_h21 + u5_t5_h22 + u5_t5_h23 = 2;
0 <= u5_t6_h6 <= 1;
0 <= u5_t6_h7 <= 1;
0 <= u5_t6_h8 <= 1;
0 <= u5_t6_h9 <= 1;
0 <= u5_t6_h10 <= 1;
0 <= u5_t6_h11 <= 1;
0 <= u5_t6_h12 <= 1;
0 <= u5_t6_h13 <= 1;
0 <= u5_t6_h14 <= 1;
0 <= u5_t6_h15 <= 1;
0 <= u5_t6_h16 <= 1;
0 <= u5_t6_h17 <= 1;
0 <= u5_t6_h18 <= 1;
u5_t6_h6 + u5_t6_h7 + u5_t6_h8 + u5_t6_h9 + u5_t6_h10 + u5_t6_h11 + u5_t6_h12 + u5_t6_h13 + u5_t6_h14 + u5_t6_h15 + u5_t6_h16 + u5_t6_h17 + u5_t6_h18 = 2;
0 <= u5_t7_h2 <= 1;
0 <= u5_t7_h3 <= 1;
0 <= u5_t7_h4 <= 1;
0 <= u5_t7_h5 <= 1;
0 <= u5_t7_h6 <= 1;
u5_t7_h2 + u5_t7_h3 + u5_t7_h4 + u5_t7_h5 + u5_t7_h6 = 1;
0 <= u5_t8_h13 <= 1;
0 <= u5_t8_h14 <= 1;
0 <= u5_t8_h15 <= 1;
0 <= u5_t8_h16 <= 1;
0 <= u5_t8_h17 <= 1;
u5_t8_h13 + u5_t8_h14 + u5_t8_h15 + u5_t8_h16 + u5_t8_h17 = 3;
0 <= u5_t9_h15 <= 1;
0 <= u5_t9_h16 <= 1;
0 <= u5_t9_h17 <= 1;
0 <= u5_t9_h18 <= 1;
0 <= u5_t9_h19 <= 1;
0 <= u5_t9_h20 <= 1;
0 <= u5_t9_h21 <= 1;
0 <= u5_t9_h22 <= 1;
0 <= u5_t9_h23 <= 1;
u5_t9_h15 + u5_t9_h16 + u5_t9_h17 + u5_t9_h18 + u5_t9_h19 + u5_t9_h20 + u5_t9_h21 + u5_t9_h22 + u5_t9_h23 = 1;
0 <= u5_t10_h17 <= 1;
0 <= u5_t10_h18 <= 1;
0 <= u5_t10_h19 <= 1;
0 <= u5_t10_h20 <= 1;
0 <= u5_t10_h21 <= 1;
0 <= u5_t10_h22 <= 1;
0 <= u5_t10_h23 <= 1;
u5_t10_h17 + u5_t10_h18 + u5_t10_h19 + u5_t10_h20 + u5_t10_h21 + u5_t10_h22 + u5_t10_h23 = 1;
